Tuning log:

	Method 2
	Aggregate 0
	Presolve 1

-------------------------------------------------------------------------------

Optimize a model with 138062 rows, 252161 columns and 3673364 nonzeros
Coefficient statistics:
  Matrix range     [1e+00, 8e+02]
  Objective range  [1e+00, 1e+00]
  Bounds range     [1e+00, 1e+00]
  RHS range        [1e+00, 1e+00]
Presolve removed 59 rows and 40 columns
Presolve time: 0.77s
Presolved: 138003 rows, 252121 columns, 3673265 nonzeros

Elapsed ordering time = 5s
Elapsed ordering time = 10s
Elapsed ordering time = 15s
Ordering time: 18.21s

Barrier statistics:
 AA' NZ     : 6.779e+06
 Factor NZ  : 1.172e+08 (roughly 1.0 GBytes of memory)
 Factor Ops : 5.974e+11 (roughly 12 seconds per iteration)
 Threads    : 2

                  Objective                Residual
Iter       Primal          Dual         Primal    Dual     Compl     Time
   0   2.00337627e+03 -1.35513474e+04  1.38e+04 0.00e+00  1.96e+00    36s
   1   4.21154545e+02 -1.30194749e+04  1.24e+03 3.08e-03  1.98e-01    53s
   2   7.83119142e+02 -8.29553318e+03  7.88e+01 3.09e-14  2.74e-02    69s
   3   7.09352178e+02 -8.17840815e+02  1.21e+01 4.34e-13  3.93e-03    86s
   4   6.16992423e+02  1.22110424e+01  3.64e+00 2.06e-13  1.41e-03   103s
   5   5.64543566e+02  3.75261696e+02  1.12e+00 1.44e-13  4.26e-04   121s
   6   5.45501092e+02  4.49862985e+02  5.73e-01 1.61e-13  2.13e-04   138s
   7   5.37230572e+02  4.77537443e+02  3.77e-01 1.66e-13  1.33e-04   155s
   8   5.32232482e+02  4.95393163e+02  2.66e-01 1.89e-13  8.37e-05   172s
   9   5.28861908e+02  5.03250532e+02  1.95e-01 2.11e-13  5.88e-05   188s
  10   5.25333350e+02  5.11178454e+02  1.24e-01 1.72e-13  3.33e-05   205s
  11   5.21691750e+02  5.15522244e+02  4.75e-02 1.59e-13  1.43e-05   224s
  12   5.19998730e+02  5.17720701e+02  1.71e-02 1.44e-13  5.29e-06   243s
  13   5.19519114e+02  5.18194898e+02  1.00e-02 1.69e-13  3.08e-06   259s
  14   5.19137514e+02  5.18558514e+02  4.54e-03 1.41e-13  1.36e-06   277s
  15   5.18875773e+02  5.18761448e+02  8.85e-04 1.18e-13  2.68e-07   297s
  16   5.18805647e+02  5.18791408e+02  6.79e-05 2.15e-13  3.12e-08   317s
  17   5.18800079e+02  5.18795869e+02  2.12e-05 2.17e-13  9.29e-09   336s
  18   5.18798405e+02  5.18796468e+02  8.62e-06 4.39e-13  4.21e-09   352s
  19   5.18797834e+02  5.18797063e+02  4.21e-06 5.18e-13  1.72e-09   369s
  20   5.18797324e+02  5.18797227e+02  5.26e-07 4.23e-13  2.16e-10   389s
  21   5.18797265e+02  5.18797241e+02  1.44e-07 3.85e-13  5.46e-11   406s
  22   5.18797257e+02  5.18797242e+02  1.03e-07 2.14e-13  3.33e-11   423s
  23   5.18797248e+02  5.18797243e+02  8.93e-08 3.54e-13  1.02e-11   439s

Barrier solved model in 23 iterations and 438.67 seconds
Optimal objective 5.18797248e+02

Crossover log...

   50625 variables added to crossover basis                      440s

   85403 DPushes remaining with DInf 5.0040016e+01               445s
   22998 DPushes remaining with DInf 2.8275611e+01               470s
    7888 DPushes remaining with DInf 1.9363083e+01               487s
    2769 DPushes remaining with DInf 1.5412493e+01               496s
     419 DPushes remaining with DInf 2.1688163e+01               501s
      59 DPushes remaining with DInf 2.9043970e+02               505s
       0 DPushes remaining with DInf 1.8365388e+03               507s

    8921 PPushes remaining with PInf 2.3770442e-03               507s
       0 PPushes remaining with PInf 3.2433824e-04               525s

  Push phase complete: Pinf 3.2433824e-04, Dinf 1.8871073e+03    525s

Iteration    Objective       Primal Inf.    Dual Inf.      Time
   94291    5.1879723e+02   0.000000e+00   1.887107e+03    526s
   95161    5.1879723e+02   0.000000e+00   3.228786e+01    533s
   95601    5.1879723e+02   0.000000e+00   6.874174e+01    536s
   96221    5.1879722e+02   0.000000e+00   2.733016e+01    544s
   96431    5.1879722e+02   0.000000e+00   4.659435e+02    548s
   96641    5.1879722e+02   0.000000e+00   3.654577e+02    552s
   96851    5.1879721e+02   0.000000e+00   8.535795e+02    556s
   97051    5.1879721e+02   0.000000e+00   1.678374e+03    561s
   97451    5.1879721e+02   0.000000e+00   9.141307e+02    569s
   97651    5.1879721e+02   0.000000e+00   3.358242e+01    573s
   97861    5.1879721e+02   0.000000e+00   6.933599e+01    577s
   98061    5.1879721e+02   0.000000e+00   1.159720e+01    581s
   98271    5.1879721e+02   0.000000e+00   1.500072e+02    585s
   98691    5.1879721e+02   0.000000e+00   2.872508e+00    593s
   98901    5.1879721e+02   0.000000e+00   6.138931e+00    597s
   99121    5.1879721e+02   0.000000e+00   3.002403e-01    601s
   99508    5.1879724e+02   4.778607e-02   0.000000e+00    607s
   99635    5.1879724e+02   0.000000e+00   0.000000e+00    611s
Extra 3 simplex iterations after uncrush
   99638    5.1879724e+02   0.000000e+00   0.000000e+00    613s

Solved in 99638 iterations and 613.21 seconds
Optimal objective  5.187972438e+02
